r = [
0,74,16,33,43,10,70,73,49,70,52,0
];
p = [
0,22,30,10,9,8,8,18,12,30,6,0
];
e = [
0,12,17,1,12,10,2,6,16,19,12,0
];
d = [
0,155,128,52,98,137,214,123,84,159,81,221
];
d_bar = [
0,175,155,61,106,144,221,139,95,186,86,221
];
w = [
0,0.6,0.62962963,0.111111111,1.5,1.428571429,0.285714286,0.375,1.454545455,0.703703704,2.4,0
];
